 &control
    calculation  = 'scf'
    restart_mode = 'from_scratch',
    prefix       = 'pb',
    pseudo_dir   = '../pseudo/',
    outdir       = './'
 /
 &system
    ibrav        = 2, 
    celldm(1)    = 9.27,
    nat          = 1,
    ntyp         = 1,
    ecutwfc      = 30.0
    occupations  = 'smearing',
    smearing     = 'mp',
    degauss      = 0.025
 /
 &electrons
    diagonalization = 'david'
    mixing_beta  = 0.7
    conv_thr     = 1.0d-12
 /
 ATOMIC_SPECIES
  Pb 207.2 pb_s.UPF
 ATOMIC_POSITIONS
  Pb 0.00 0.00 0.00
 K_POINTS {automatic}
  12 12 12 0 0 0
