&PROJWFC
    prefix = 'qe'
    outdir = './out/'
    Emin=-20.0, Emax=20.0, DeltaE=0.1,
    ngauss=0, degauss=0.01
/
