 &control
    calculation  = 'bands',
    restart_mode = 'from_scratch',
    prefix       = 'pb',
    pseudo_dir   = '../../pseudo/',
    outdir       = './',
    verbosity    = 'high'
 /
 &system    
    ibrav        = 2,
    celldm(1)    = 9.27,
    nat          = 1,
    ntyp         = 1,
    ecutwfc      = 30.0,
    occupations  = 'smearing',
    smearing     = 'mp',
    degauss      = 0.025,
    nbnd         = 10,
 /
 &electrons
    diagonalization = 'david'
    mixing_beta  = 0.7
    conv_thr     = 1.0d-12
 /
 ATOMIC_SPECIES
  Pb 207.2   pb_s.UPF
 ATOMIC_POSITIONS crystal
  Pb  0.000000000   0.000000000   0.000000000
 K_POINTS crystal
  27
  0.00000000  0.00000000  0.00000000  3.703704e-02
  0.00000000  0.00000000  0.33333333  3.703704e-02
  0.00000000  0.00000000  0.66666667  3.703704e-02
  0.00000000  0.33333333  0.00000000  3.703704e-02
  0.00000000  0.33333333  0.33333333  3.703704e-02
  0.00000000  0.33333333  0.66666667  3.703704e-02
  0.00000000  0.66666667  0.00000000  3.703704e-02
  0.00000000  0.66666667  0.33333333  3.703704e-02
  0.00000000  0.66666667  0.66666667  3.703704e-02
  0.33333333  0.00000000  0.00000000  3.703704e-02
  0.33333333  0.00000000  0.33333333  3.703704e-02
  0.33333333  0.00000000  0.66666667  3.703704e-02
  0.33333333  0.33333333  0.00000000  3.703704e-02
  0.33333333  0.33333333  0.33333333  3.703704e-02
  0.33333333  0.33333333  0.66666667  3.703704e-02
  0.33333333  0.66666667  0.00000000  3.703704e-02
  0.33333333  0.66666667  0.33333333  3.703704e-02
  0.33333333  0.66666667  0.66666667  3.703704e-02
  0.66666667  0.00000000  0.00000000  3.703704e-02
  0.66666667  0.00000000  0.33333333  3.703704e-02
  0.66666667  0.00000000  0.66666667  3.703704e-02
  0.66666667  0.33333333  0.00000000  3.703704e-02
  0.66666667  0.33333333  0.33333333  3.703704e-02
  0.66666667  0.33333333  0.66666667  3.703704e-02
  0.66666667  0.66666667  0.00000000  3.703704e-02
  0.66666667  0.66666667  0.33333333  3.703704e-02
  0.66666667  0.66666667  0.66666667  3.703704e-02
