&bands
   outdir = './',
   prefix='nb',
   filband='nb.bands.20x20x20.dat',
/