Ca1 Ti1 O3                              
   1.00000000000000     
     3.8587195721439729   -0.0000000372060048    0.0000000661898231
    -0.0000000372638260    3.8587135134699815    0.0000000453923457
     0.0000000661086352    0.0000000455074661    3.8587165266520063
   Ca   Ti   O 
     1     1     3
Direct
  0.7824089862341315  0.5472852706830249  0.9746374041279500
  0.8077429479745388  0.9798471848637864  0.3780205729788934
  0.5663285543897586  0.0234769303157527  0.9887058964192056
  0.2003405843413876  0.0656252601783717  0.7563975389818979
  0.1136358762471325  0.3527614141432324  0.4347626401157562
 
 -0.12891494E-01 -0.16220606E-01  0.35427804E-01
 -0.96948218E-02  0.12699808E-01 -0.13419661E-01
  0.23145655E-01  0.10258540E-01 -0.12799500E-01
  0.22045475E-01 -0.75640600E-02 -0.19415053E-01
  0.16112205E-01 -0.68066855E-04 -0.16369330E-01
 
           1
   1.00000000000000     
  0.10000000E+01  0.00000000E+00  0.00000000E+00  0.00000000E+00
  0.77906811E+00  0.54308164E+00  0.98381864E+00
  0.80523050E+00  0.98313839E+00  0.37454282E+00
  0.57232683E+00  0.26135469E-01  0.98538886E+00
  0.20605374E+00  0.63665006E-01  0.75136606E+00
  0.11781141E+00  0.35274377E+00  0.43052047E+00
 -0.34788177E-02 -0.40298702E-02  0.93933042E-02
 -0.25650245E-02  0.32184558E-02 -0.36552970E-02
  0.62622949E-02  0.24803238E-02 -0.33167286E-02
  0.56926549E-02 -0.19244731E-02 -0.51765050E-02
  0.44348893E-02 -0.92758504E-04 -0.40973430E-02
  0.00000000E+00  0.00000000E+00  0.00000000E+00
  0.00000000E+00  0.00000000E+00  0.00000000E+00
  0.00000000E+00  0.00000000E+00  0.00000000E+00
  0.00000000E+00  0.00000000E+00  0.00000000E+00
  0.00000000E+00  0.00000000E+00  0.00000000E+00
