CsPbCl3
1.0
       33.6300010681         0.0000000000         0.0000000000
        0.0000000000        33.6300010681         0.0000000000
        0.0000000000         0.0000000000        58.0250015259
   Cl   Cs   Pb
  576  216  180
Direct
     0.000000000         0.083329998         0.094520003
     0.000000000         0.083329998         0.191110000
     0.000000000         0.083329998         0.287710011
     0.000000000         0.083329998         0.384310007
     0.000000000         0.083329998         0.480899990
     0.083329998         0.000000000         0.094520003
     0.083329998         0.000000000         0.191110000
     0.083329998         0.000000000         0.287710011
     0.083329998         0.000000000         0.384310007
     0.083329998         0.000000000         0.480899990
     0.083329998         0.083329998         0.046220001
     0.083329998         0.083329998         0.142820001
     0.083329998         0.083329998         0.239409998
     0.083329998         0.083329998         0.336010009
     0.083329998         0.083329998         0.432599992
     0.083329998         0.083329998         0.529200017
     0.166669995         0.083329998         0.094520003
     0.166669995         0.083329998         0.191110000
     0.166669995         0.083329998         0.287710011
     0.166669995         0.083329998         0.384310007
     0.166669995         0.083329998         0.480899990
     0.250000000         0.000000000         0.094520003
     0.250000000         0.000000000         0.191110000
     0.250000000         0.000000000         0.287710011
     0.250000000         0.000000000         0.384310007
     0.250000000         0.000000000         0.480899990
     0.250000000         0.083329998         0.046220001
     0.250000000         0.083329998         0.142820001
     0.250000000         0.083329998         0.239409998
     0.250000000         0.083329998         0.336010009
     0.250000000         0.083329998         0.432599992
     0.250000000         0.083329998         0.529200017
     0.333330005         0.083329998         0.094520003
     0.333330005         0.083329998         0.191110000
     0.333330005         0.083329998         0.287710011
     0.333330005         0.083329998         0.384310007
     0.333330005         0.083329998         0.480899990
     0.416669995         0.000000000         0.094520003
     0.416669995         0.000000000         0.191110000
     0.416669995         0.000000000         0.287710011
     0.416669995         0.000000000         0.384310007
     0.416669995         0.000000000         0.480899990
     0.416669995         0.083329998         0.046220001
     0.416669995         0.083329998         0.142820001
     0.416669995         0.083329998         0.239409998
     0.416669995         0.083329998         0.336010009
     0.416669995         0.083329998         0.432599992
     0.416669995         0.083329998         0.529200017
     0.500000000         0.083329998         0.094520003
     0.500000000         0.083329998         0.191110000
     0.500000000         0.083329998         0.287710011
     0.500000000         0.083329998         0.384310007
     0.500000000         0.083329998         0.480899990
     0.583329976         0.000000000         0.094520003
     0.583329976         0.000000000         0.191110000
     0.583329976         0.000000000         0.287710011
     0.583329976         0.000000000         0.384310007
     0.583329976         0.000000000         0.480899990
     0.583329976         0.083329998         0.046220001
     0.583329976         0.083329998         0.142820001
     0.583329976         0.083329998         0.239409998
     0.583329976         0.083329998         0.336010009
     0.583329976         0.083329998         0.432599992
     0.583329976         0.083329998         0.529200017
     0.666670024         0.083329998         0.094520003
     0.666670024         0.083329998         0.191110000
     0.666670024         0.083329998         0.287710011
     0.666670024         0.083329998         0.384310007
     0.666670024         0.083329998         0.480899990
     0.750000000         0.000000000         0.094520003
     0.750000000         0.000000000         0.191110000
     0.750000000         0.000000000         0.287710011
     0.750000000         0.000000000         0.384310007
     0.750000000         0.000000000         0.480899990
     0.750000000         0.083329998         0.046220001
     0.750000000         0.083329998         0.142820001
     0.750000000         0.083329998         0.239409998
     0.750000000         0.083329998         0.336010009
     0.750000000         0.083329998         0.432599992
     0.750000000         0.083329998         0.529200017
     0.833329976         0.083329998         0.094520003
     0.833329976         0.083329998         0.191110000
     0.833329976         0.083329998         0.287710011
     0.833329976         0.083329998         0.384310007
     0.833329976         0.083329998         0.480899990
     0.916670024         0.000000000         0.094520003
     0.916670024         0.000000000         0.191110000
     0.916670024         0.000000000         0.287710011
     0.916670024         0.000000000         0.384310007
     0.916670024         0.000000000         0.480899990
     0.916670024         0.083329998         0.046220001
     0.916670024         0.083329998         0.142820001
     0.916670024         0.083329998         0.239409998
     0.916670024         0.083329998         0.336010009
     0.916670024         0.083329998         0.432599992
     0.916670024         0.083329998         0.529200017
     0.000000000         0.250000000         0.094520003
     0.000000000         0.250000000         0.191110000
     0.000000000         0.250000000         0.287710011
     0.000000000         0.250000000         0.384310007
     0.000000000         0.250000000         0.480899990
     0.083329998         0.166669995         0.094520003
     0.083329998         0.166669995         0.191110000
     0.083329998         0.166669995         0.287710011
     0.083329998         0.166669995         0.384310007
     0.083329998         0.166669995         0.480899990
     0.083329998         0.250000000         0.046220001
     0.083329998         0.250000000         0.142820001
     0.083329998         0.250000000         0.239409998
     0.083329998         0.250000000         0.336010009
     0.083329998         0.250000000         0.432599992
     0.083329998         0.250000000         0.529200017
     0.166669995         0.250000000         0.094520003
     0.166669995         0.250000000         0.191110000
     0.166669995         0.250000000         0.287710011
     0.166669995         0.250000000         0.384310007
     0.166669995         0.250000000         0.480899990
     0.250000000         0.166669995         0.094520003
     0.250000000         0.166669995         0.191110000
     0.250000000         0.166669995         0.287710011
     0.250000000         0.166669995         0.384310007
     0.250000000         0.166669995         0.480899990
     0.250000000         0.250000000         0.046220001
     0.250000000         0.250000000         0.142820001
     0.250000000         0.250000000         0.239409998
     0.250000000         0.250000000         0.336010009
     0.250000000         0.250000000         0.432599992
     0.250000000         0.250000000         0.529200017
     0.333330005         0.250000000         0.094520003
     0.333330005         0.250000000         0.191110000
     0.333330005         0.250000000         0.287710011
     0.333330005         0.250000000         0.384310007
     0.333330005         0.250000000         0.480899990
     0.416669995         0.166669995         0.094520003
     0.416669995         0.166669995         0.191110000
     0.416669995         0.166669995         0.287710011
     0.416669995         0.166669995         0.384310007
     0.416669995         0.166669995         0.480899990
     0.416669995         0.250000000         0.046220001
     0.416669995         0.250000000         0.142820001
     0.416669995         0.250000000         0.239409998
     0.416669995         0.250000000         0.336010009
     0.416669995         0.250000000         0.432599992
     0.416669995         0.250000000         0.529200017
     0.500000000         0.250000000         0.094520003
     0.500000000         0.250000000         0.191110000
     0.500000000         0.250000000         0.287710011
     0.500000000         0.250000000         0.384310007
     0.500000000         0.250000000         0.480899990
     0.583329976         0.166669995         0.094520003
     0.583329976         0.166669995         0.191110000
     0.583329976         0.166669995         0.287710011
     0.583329976         0.166669995         0.384310007
     0.583329976         0.166669995         0.480899990
     0.583329976         0.250000000         0.046220001
     0.583329976         0.250000000         0.142820001
     0.583329976         0.250000000         0.239409998
     0.583329976         0.250000000         0.336010009
     0.583329976         0.250000000         0.432599992
     0.583329976         0.250000000         0.529200017
     0.666670024         0.250000000         0.094520003
     0.666670024         0.250000000         0.191110000
     0.666670024         0.250000000         0.287710011
     0.666670024         0.250000000         0.384310007
     0.666670024         0.250000000         0.480899990
     0.750000000         0.166669995         0.094520003
     0.750000000         0.166669995         0.191110000
     0.750000000         0.166669995         0.287710011
     0.750000000         0.166669995         0.384310007
     0.750000000         0.166669995         0.480899990
     0.750000000         0.250000000         0.046220001
     0.750000000         0.250000000         0.142820001
     0.750000000         0.250000000         0.239409998
     0.750000000         0.250000000         0.336010009
     0.750000000         0.250000000         0.432599992
     0.750000000         0.250000000         0.529200017
     0.833329976         0.250000000         0.094520003
     0.833329976         0.250000000         0.191110000
     0.833329976         0.250000000         0.287710011
     0.833329976         0.250000000         0.384310007
     0.833329976         0.250000000         0.480899990
     0.916670024         0.166669995         0.094520003
     0.916670024         0.166669995         0.191110000
     0.916670024         0.166669995         0.287710011
     0.916670024         0.166669995         0.384310007
     0.916670024         0.166669995         0.480899990
     0.916670024         0.250000000         0.046220001
     0.916670024         0.250000000         0.142820001
     0.916670024         0.250000000         0.239409998
     0.916670024         0.250000000         0.336010009
     0.916670024         0.250000000         0.432599992
     0.916670024         0.250000000         0.529200017
     0.000000000         0.416669995         0.094520003
     0.000000000         0.416669995         0.191110000
     0.000000000         0.416669995         0.287710011
     0.000000000         0.416669995         0.384310007
     0.000000000         0.416669995         0.480899990
     0.083329998         0.333330005         0.094520003
     0.083329998         0.333330005         0.191110000
     0.083329998         0.333330005         0.287710011
     0.083329998         0.333330005         0.384310007
     0.083329998         0.333330005         0.480899990
     0.083329998         0.416669995         0.046220001
     0.083329998         0.416669995         0.142820001
     0.083329998         0.416669995         0.239409998
     0.083329998         0.416669995         0.336010009
     0.083329998         0.416669995         0.432599992
     0.083329998         0.416669995         0.529200017
     0.166669995         0.416669995         0.094520003
     0.166669995         0.416669995         0.191110000
     0.166669995         0.416669995         0.287710011
     0.166669995         0.416669995         0.384310007
     0.166669995         0.416669995         0.480899990
     0.250000000         0.333330005         0.094520003
     0.250000000         0.333330005         0.191110000
     0.250000000         0.333330005         0.287710011
     0.250000000         0.333330005         0.384310007
     0.250000000         0.333330005         0.480899990
     0.250000000         0.416669995         0.046220001
     0.250000000         0.416669995         0.142820001
     0.250000000         0.416669995         0.239409998
     0.250000000         0.416669995         0.336010009
     0.250000000         0.416669995         0.432599992
     0.250000000         0.416669995         0.529200017
     0.333330005         0.416669995         0.094520003
     0.333330005         0.416669995         0.191110000
     0.333330005         0.416669995         0.287710011
     0.333330005         0.416669995         0.384310007
     0.333330005         0.416669995         0.480899990
     0.416669995         0.333330005         0.094520003
     0.416669995         0.333330005         0.191110000
     0.416669995         0.333330005         0.287710011
     0.416669995         0.333330005         0.384310007
     0.416669995         0.333330005         0.480899990
     0.416669995         0.416669995         0.046220001
     0.416669995         0.416669995         0.142820001
     0.416669995         0.416669995         0.239409998
     0.416669995         0.416669995         0.336010009
     0.416669995         0.416669995         0.432599992
     0.416669995         0.416669995         0.529200017
     0.500000000         0.416669995         0.094520003
     0.500000000         0.416669995         0.191110000
     0.500000000         0.416669995         0.287710011
     0.500000000         0.416669995         0.384310007
     0.500000000         0.416669995         0.480899990
     0.583329976         0.333330005         0.094520003
     0.583329976         0.333330005         0.191110000
     0.583329976         0.333330005         0.287710011
     0.583329976         0.333330005         0.384310007
     0.583329976         0.333330005         0.480899990
     0.583329976         0.416669995         0.046220001
     0.583329976         0.416669995         0.142820001
     0.583329976         0.416669995         0.239409998
     0.583329976         0.416669995         0.336010009
     0.583329976         0.416669995         0.432599992
     0.583329976         0.416669995         0.529200017
     0.666670024         0.416669995         0.094520003
     0.666670024         0.416669995         0.191110000
     0.666670024         0.416669995         0.287710011
     0.666670024         0.416669995         0.384310007
     0.666670024         0.416669995         0.480899990
     0.750000000         0.333330005         0.094520003
     0.750000000         0.333330005         0.191110000
     0.750000000         0.333330005         0.287710011
     0.750000000         0.333330005         0.384310007
     0.750000000         0.333330005         0.480899990
     0.750000000         0.416669995         0.046220001
     0.750000000         0.416669995         0.142820001
     0.750000000         0.416669995         0.239409998
     0.750000000         0.416669995         0.336010009
     0.750000000         0.416669995         0.432599992
     0.750000000         0.416669995         0.529200017
     0.833329976         0.416669995         0.094520003
     0.833329976         0.416669995         0.191110000
     0.833329976         0.416669995         0.287710011
     0.833329976         0.416669995         0.384310007
     0.833329976         0.416669995         0.480899990
     0.916670024         0.333330005         0.094520003
     0.916670024         0.333330005         0.191110000
     0.916670024         0.333330005         0.287710011
     0.916670024         0.333330005         0.384310007
     0.916670024         0.333330005         0.480899990
     0.916670024         0.416669995         0.046220001
     0.916670024         0.416669995         0.142820001
     0.916670024         0.416669995         0.239409998
     0.916670024         0.416669995         0.336010009
     0.916670024         0.416669995         0.432599992
     0.916670024         0.416669995         0.529200017
     0.000000000         0.583329976         0.094520003
     0.000000000         0.583329976         0.191110000
     0.000000000         0.583329976         0.287710011
     0.000000000         0.583329976         0.384310007
     0.000000000         0.583329976         0.480899990
     0.083329998         0.500000000         0.094520003
     0.083329998         0.500000000         0.191110000
     0.083329998         0.500000000         0.287710011
     0.083329998         0.500000000         0.384310007
     0.083329998         0.500000000         0.480899990
     0.083329998         0.583329976         0.046220001
     0.083329998         0.583329976         0.142820001
     0.083329998         0.583329976         0.239409998
     0.083329998         0.583329976         0.336010009
     0.083329998         0.583329976         0.432599992
     0.083329998         0.583329976         0.529200017
     0.166669995         0.583329976         0.094520003
     0.166669995         0.583329976         0.191110000
     0.166669995         0.583329976         0.287710011
     0.166669995         0.583329976         0.384310007
     0.166669995         0.583329976         0.480899990
     0.250000000         0.500000000         0.094520003
     0.250000000         0.500000000         0.191110000
     0.250000000         0.500000000         0.287710011
     0.250000000         0.500000000         0.384310007
     0.250000000         0.500000000         0.480899990
     0.250000000         0.583329976         0.046220001
     0.250000000         0.583329976         0.142820001
     0.250000000         0.583329976         0.239409998
     0.250000000         0.583329976         0.336010009
     0.250000000         0.583329976         0.432599992
     0.250000000         0.583329976         0.529200017
     0.333330005         0.583329976         0.094520003
     0.333330005         0.583329976         0.191110000
     0.333330005         0.583329976         0.287710011
     0.333330005         0.583329976         0.384310007
     0.333330005         0.583329976         0.480899990
     0.416669995         0.500000000         0.094520003
     0.416669995         0.500000000         0.191110000
     0.416669995         0.500000000         0.287710011
     0.416669995         0.500000000         0.384310007
     0.416669995         0.500000000         0.480899990
     0.416669995         0.583329976         0.046220001
     0.416669995         0.583329976         0.142820001
     0.416669995         0.583329976         0.239409998
     0.416669995         0.583329976         0.336010009
     0.416669995         0.583329976         0.432599992
     0.416669995         0.583329976         0.529200017
     0.500000000         0.583329976         0.094520003
     0.500000000         0.583329976         0.191110000
     0.500000000         0.583329976         0.287710011
     0.500000000         0.583329976         0.384310007
     0.500000000         0.583329976         0.480899990
     0.583329976         0.500000000         0.094520003
     0.583329976         0.500000000         0.191110000
     0.583329976         0.500000000         0.287710011
     0.583329976         0.500000000         0.384310007
     0.583329976         0.500000000         0.480899990
     0.583329976         0.583329976         0.046220001
     0.583329976         0.583329976         0.142820001
     0.583329976         0.583329976         0.239409998
     0.583329976         0.583329976         0.336010009
     0.583329976         0.583329976         0.432599992
     0.583329976         0.583329976         0.529200017
     0.666670024         0.583329976         0.094520003
     0.666670024         0.583329976         0.191110000
     0.666670024         0.583329976         0.287710011
     0.666670024         0.583329976         0.384310007
     0.666670024         0.583329976         0.480899990
     0.750000000         0.500000000         0.094520003
     0.750000000         0.500000000         0.191110000
     0.750000000         0.500000000         0.287710011
     0.750000000         0.500000000         0.384310007
     0.750000000         0.500000000         0.480899990
     0.750000000         0.583329976         0.046220001
     0.750000000         0.583329976         0.142820001
     0.750000000         0.583329976         0.239409998
     0.750000000         0.583329976         0.336010009
     0.750000000         0.583329976         0.432599992
     0.750000000         0.583329976         0.529200017
     0.833329976         0.583329976         0.094520003
     0.833329976         0.583329976         0.191110000
     0.833329976         0.583329976         0.287710011
     0.833329976         0.583329976         0.384310007
     0.833329976         0.583329976         0.480899990
     0.916670024         0.500000000         0.094520003
     0.916670024         0.500000000         0.191110000
     0.916670024         0.500000000         0.287710011
     0.916670024         0.500000000         0.384310007
     0.916670024         0.500000000         0.480899990
     0.916670024         0.583329976         0.046220001
     0.916670024         0.583329976         0.142820001
     0.916670024         0.583329976         0.239409998
     0.916670024         0.583329976         0.336010009
     0.916670024         0.583329976         0.432599992
     0.916670024         0.583329976         0.529200017
     0.000000000         0.750000000         0.094520003
     0.000000000         0.750000000         0.191110000
     0.000000000         0.750000000         0.287710011
     0.000000000         0.750000000         0.384310007
     0.000000000         0.750000000         0.480899990
     0.083329998         0.666670024         0.094520003
     0.083329998         0.666670024         0.191110000
     0.083329998         0.666670024         0.287710011
     0.083329998         0.666670024         0.384310007
     0.083329998         0.666670024         0.480899990
     0.083329998         0.750000000         0.046220001
     0.083329998         0.750000000         0.142820001
     0.083329998         0.750000000         0.239409998
     0.083329998         0.750000000         0.336010009
     0.083329998         0.750000000         0.432599992
     0.083329998         0.750000000         0.529200017
     0.166669995         0.750000000         0.094520003
     0.166669995         0.750000000         0.191110000
     0.166669995         0.750000000         0.287710011
     0.166669995         0.750000000         0.384310007
     0.166669995         0.750000000         0.480899990
     0.250000000         0.666670024         0.094520003
     0.250000000         0.666670024         0.191110000
     0.250000000         0.666670024         0.287710011
     0.250000000         0.666670024         0.384310007
     0.250000000         0.666670024         0.480899990
     0.250000000         0.750000000         0.046220001
     0.250000000         0.750000000         0.142820001
     0.250000000         0.750000000         0.239409998
     0.250000000         0.750000000         0.336010009
     0.250000000         0.750000000         0.432599992
     0.250000000         0.750000000         0.529200017
     0.333330005         0.750000000         0.094520003
     0.333330005         0.750000000         0.191110000
     0.333330005         0.750000000         0.287710011
     0.333330005         0.750000000         0.384310007
     0.333330005         0.750000000         0.480899990
     0.416669995         0.666670024         0.094520003
     0.416669995         0.666670024         0.191110000
     0.416669995         0.666670024         0.287710011
     0.416669995         0.666670024         0.384310007
     0.416669995         0.666670024         0.480899990
     0.416669995         0.750000000         0.046220001
     0.416669995         0.750000000         0.142820001
     0.416669995         0.750000000         0.239409998
     0.416669995         0.750000000         0.336010009
     0.416669995         0.750000000         0.432599992
     0.416669995         0.750000000         0.529200017
     0.500000000         0.750000000         0.094520003
     0.500000000         0.750000000         0.191110000
     0.500000000         0.750000000         0.287710011
     0.500000000         0.750000000         0.384310007
     0.500000000         0.750000000         0.480899990
     0.583329976         0.666670024         0.094520003
     0.583329976         0.666670024         0.191110000
     0.583329976         0.666670024         0.287710011
     0.583329976         0.666670024         0.384310007
     0.583329976         0.666670024         0.480899990
     0.583329976         0.750000000         0.046220001
     0.583329976         0.750000000         0.142820001
     0.583329976         0.750000000         0.239409998
     0.583329976         0.750000000         0.336010009
     0.583329976         0.750000000         0.432599992
     0.583329976         0.750000000         0.529200017
     0.666670024         0.750000000         0.094520003
     0.666670024         0.750000000         0.191110000
     0.666670024         0.750000000         0.287710011
     0.666670024         0.750000000         0.384310007
     0.666670024         0.750000000         0.480899990
     0.750000000         0.666670024         0.094520003
     0.750000000         0.666670024         0.191110000
     0.750000000         0.666670024         0.287710011
     0.750000000         0.666670024         0.384310007
     0.750000000         0.666670024         0.480899990
     0.750000000         0.750000000         0.046220001
     0.750000000         0.750000000         0.142820001
     0.750000000         0.750000000         0.239409998
     0.750000000         0.750000000         0.336010009
     0.750000000         0.750000000         0.432599992
     0.750000000         0.750000000         0.529200017
     0.833329976         0.750000000         0.094520003
     0.833329976         0.750000000         0.191110000
     0.833329976         0.750000000         0.287710011
     0.833329976         0.750000000         0.384310007
     0.833329976         0.750000000         0.480899990
     0.916670024         0.666670024         0.094520003
     0.916670024         0.666670024         0.191110000
     0.916670024         0.666670024         0.287710011
     0.916670024         0.666670024         0.384310007
     0.916670024         0.666670024         0.480899990
     0.916670024         0.750000000         0.046220001
     0.916670024         0.750000000         0.142820001
     0.916670024         0.750000000         0.239409998
     0.916670024         0.750000000         0.336010009
     0.916670024         0.750000000         0.432599992
     0.916670024         0.750000000         0.529200017
     0.000000000         0.916670024         0.094520003
     0.000000000         0.916670024         0.191110000
     0.000000000         0.916670024         0.287710011
     0.000000000         0.916670024         0.384310007
     0.000000000         0.916670024         0.480899990
     0.083329998         0.833329976         0.094520003
     0.083329998         0.833329976         0.191110000
     0.083329998         0.833329976         0.287710011
     0.083329998         0.833329976         0.384310007
     0.083329998         0.833329976         0.480899990
     0.083329998         0.916670024         0.046220001
     0.083329998         0.916670024         0.142820001
     0.083329998         0.916670024         0.239409998
     0.083329998         0.916670024         0.336010009
     0.083329998         0.916670024         0.432599992
     0.083329998         0.916670024         0.529200017
     0.166669995         0.916670024         0.094520003
     0.166669995         0.916670024         0.191110000
     0.166669995         0.916670024         0.287710011
     0.166669995         0.916670024         0.384310007
     0.166669995         0.916670024         0.480899990
     0.250000000         0.833329976         0.094520003
     0.250000000         0.833329976         0.191110000
     0.250000000         0.833329976         0.287710011
     0.250000000         0.833329976         0.384310007
     0.250000000         0.833329976         0.480899990
     0.250000000         0.916670024         0.046220001
     0.250000000         0.916670024         0.142820001
     0.250000000         0.916670024         0.239409998
     0.250000000         0.916670024         0.336010009
     0.250000000         0.916670024         0.432599992
     0.250000000         0.916670024         0.529200017
     0.333330005         0.916670024         0.094520003
     0.333330005         0.916670024         0.191110000
     0.333330005         0.916670024         0.287710011
     0.333330005         0.916670024         0.384310007
     0.333330005         0.916670024         0.480899990
     0.416669995         0.833329976         0.094520003
     0.416669995         0.833329976         0.191110000
     0.416669995         0.833329976         0.287710011
     0.416669995         0.833329976         0.384310007
     0.416669995         0.833329976         0.480899990